Version identifier: 20.1.0.0 | 2020-11-10 | 9bedb6d68
Tried aggregator 2 times.
MIP Presolve eliminated 1352 rows and 801 columns.
MIP Presolve modified 2546 coefficients.
Aggregator did 148 substitutions.
Reduced MIP has 1056 rows, 858 columns, and 3357 nonzeros.
Reduced MIP has 211 binaries, 647 generals, 0 SOSs, and 0 indicators.
Presolve time = 0.02 sec. (5.59 ticks)
Found incumbent of value 53.000000 after 0.02 sec. (9.48 ticks)
Probing fixed 30 vars, tightened 211 bounds.
Probing time = 0.00 sec. (1.00 ticks)
Tried aggregator 1 time.
Detecting symmetries...
MIP Presolve eliminated 450 rows and 30 columns.
MIP Presolve modified 49 coefficients.
Reduced MIP has 606 rows, 828 columns, and 1977 nonzeros.
Reduced MIP has 299 binaries, 529 generals, 0 SOSs, and 0 indicators.
Presolve time = 0.00 sec. (2.27 ticks)
Probing time = 0.00 sec. (0.19 ticks)
Clique table members: 61.
MIP emphasis: balance optimality and feasibility.
MIP search method: dynamic search.
Parallel mode: deterministic, using up to 24 threads.
Root relaxation solution time = 0.00 sec. (1.63 ticks)

        Nodes                                         Cuts/
   Node  Left     Objective  IInf  Best Integer    Best Bound    ItCnt     Gap

*     0+    0                           53.0000        0.0000           100.00%
      0     0        0.0000    45       53.0000        0.0000      171  100.00%
      0     0        0.8333    45       53.0000     Cuts: 183      425   98.43%
*     0+    0                           11.0000        0.8333            92.42%
      0     0        2.0000   140       11.0000      Cuts: 56      480   81.82%
      0     0        2.0000    96       11.0000      Cuts: 61      526   81.82%
      0     0        2.0000    99       11.0000      Cuts: 51      561   81.82%
      0     0        2.0000    46       11.0000       Cuts: 7      574   81.82%
*     0+    0                           10.0000        2.0000            80.00%
      0     0        2.0000    74       10.0000      Cuts: 52      609   80.00%
*     0+    0                            9.0000        2.0000            77.78%
      0     0        cutoff              9.0000        9.0000      609    0.00%
Elapsed time = 0.16 sec. (77.95 ticks, tree = 0.01 MB, solutions = 4)

Cover cuts applied:  1
Implied bound cuts applied:  40
Flow cuts applied:  3
Mixed integer rounding cuts applied:  10
Zero-half cuts applied:  69
Gomory fractional cuts applied:  19

Root node processing (before b&c):
  Real time             =    0.16 sec. (78.05 ticks)
Parallel b&c, 24 threads:
  Real time             =    0.00 sec. (0.00 ticks)
  Sync time (average)   =    0.00 sec.
  Wait time (average)   =    0.00 sec.
                          ------------
Total (root+branch&cut) =    0.16 sec. (78.05 ticks)

Solution status = Optimal
Solution LB = 9
Solution UB = 9
Runtime = 0.172119 seconds
	Command being timed: "/home/min/git_repos/CS598MEBProject/CNT-ILP/build/cnt -s 2 ./output/k6_n30/simC_c1_k6_n30_u1_s2_del04.input-right.cnp"
	User time (seconds): 1.07
	System time (seconds): 0.04
	Percent of CPU this job got: 588%
	Elapsed (wall clock) time (h:mm:ss or m:ss): 0:00.19
	Average shared text size (kbytes): 0
	Average unshared data size (kbytes): 0
	Average stack size (kbytes): 0
	Average total size (kbytes): 0
	Maximum resident set size (kbytes): 66576
	Average resident set size (kbytes): 0
	Major (requiring I/O) page faults: 0
	Minor (reclaiming a frame) page faults: 13720
	Voluntary context switches: 2282
	Involuntary context switches: 111
	Swaps: 0
	File system inputs: 0
	File system outputs: 16
	Socket messages sent: 0
	Socket messages received: 0
	Signals delivered: 0
	Page size (bytes): 4096
	Exit status: 0
